
Gurobi 9.5.0 (win64) logging started Tue Dec  7 12:39:03 2021

Set parameter LogFile to value "../results/logs/log_2021_12_07_12_26.csv_5_85.log"
Set parameter Method to value 3
Gurobi Optimizer version 9.5.0 build v9.5.0rc5 (win64)
Thread count: 6 physical cores, 12 logical processors, using up to 12 threads
Optimize a model with 1783 rows, 9882 columns and 22585 nonzeros
Model fingerprint: 0xa84ddea7
Variable types: 4941 continuous, 4941 integer (4941 binary)
Coefficient statistics:
  Matrix range     [1e+00, 5e+00]
  Objective range  [1e+00, 1e+00]
  Bounds range     [1e+00, 1e+00]
  RHS range        [1e+00, 9e+01]
Found heuristic solution: objective 12.0000000
Presolve removed 944 rows and 8566 columns
Presolve time: 0.04s
Presolved: 839 rows, 1316 columns, 4810 nonzeros
Variable types: 741 continuous, 575 integer (555 binary)
Found heuristic solution: objective 31.0000000

Concurrent LP optimizer: primal simplex, dual simplex, and barrier
Showing barrier log only...

Root barrier log...

Ordering time: 0.00s

Barrier statistics:
 AA' NZ     : 3.463e+03
 Factor NZ  : 9.369e+03 (roughly 1 MB of memory)
 Factor Ops : 1.271e+05 (less than 1 second per iteration)
 Threads    : 1

                  Objective                Residual
Iter       Primal          Dual         Primal    Dual     Compl     Time
   0   2.33919480e+03  1.81779202e+03  1.85e+03 8.41e-01  9.01e+00     0s
   1   4.20088081e+02  1.91045152e+03  2.20e+02 2.66e-15  1.39e+00     0s
   2   2.20915199e+02  6.55315933e+02  3.29e+01 1.33e-15  2.32e-01     0s
   3   1.65429083e+02  2.41227263e+02  2.18e+00 2.33e-15  2.84e-02     0s
   4   1.73685827e+02  1.94875941e+02  2.75e-01 1.65e-15  6.96e-03     0s
   5   1.77022879e+02  1.85183624e+02  1.22e-01 2.17e-15  2.71e-03     0s
   6   1.78615547e+02  1.82754574e+02  5.41e-02 2.65e-15  1.35e-03     0s
   7   1.79425675e+02  1.80750938e+02  2.33e-02 2.13e-15  4.46e-04     0s
   8   1.79900885e+02  1.80172346e+02  4.94e-03 1.22e-15  9.16e-05     0s
   9   1.80064534e+02  1.80089999e+02  4.78e-04 2.06e-15  8.63e-06     0s

Barrier performed 9 iterations in 0.07 seconds (0.04 work units)
Barrier solve interrupted - model solved by another algorithm


Solved with primal simplex

Root relaxation: objective 1.800830e+02, 889 iterations, 0.02 seconds (0.01 work units)

    Nodes    |    Current Node    |     Objective Bounds      |     Work
 Expl Unexpl |  Obj  Depth IntInf | Incumbent    BestBd   Gap | It/Node Time

     0     0  180.08299    0  288   31.00000  180.08299   481%     -    0s
H    0     0                      81.0000000  180.08299   122%     -    0s
     0     0  133.56297    0  154   81.00000  133.56297  64.9%     -    0s
     0     0  131.81022    0  156   81.00000  131.81022  62.7%     -    0s
     0     0  131.46219    0  150   81.00000  131.46219  62.3%     -    0s
     0     0  131.42342    0  143   81.00000  131.42342  62.3%     -    0s
     0     0  131.40864    0  149   81.00000  131.40864  62.2%     -    0s
     0     0  124.87815    0  124   81.00000  124.87815  54.2%     -    0s
     0     0  123.51149    0  105   81.00000  123.51149  52.5%     -    0s
     0     0  123.32339    0   87   81.00000  123.32339  52.3%     -    0s
     0     0  123.30618    0   89   81.00000  123.30618  52.2%     -    0s
     0     0  122.21226    0   85   81.00000  122.21226  50.9%     -    0s
     0     0  122.11153    0   87   81.00000  122.11153  50.8%     -    0s
     0     0  122.01258    0   82   81.00000  122.01258  50.6%     -    0s
H    0     0                     111.0000000  122.00517  9.91%     -    0s
     0     0  122.00517    0   86  111.00000  122.00517  9.91%     -    0s
     0     0  121.71060    0   86  111.00000  121.71060  9.65%     -    0s
     0     0  121.71060    0   86  111.00000  121.71060  9.65%     -    0s
     0     2  121.71060    0   86  111.00000  121.71060  9.65%     -    0s
H  293   325                     114.0000000  121.15703  6.28%  23.1    1s
*  367   354              60     115.0000000  121.15703  5.35%  21.9    1s
H  541   359                     116.0000000  120.78759  4.13%  23.2    1s
H  939   380                     117.0000000  120.29384  2.82%  23.3    1s
  1397   558  118.60271   18   50  117.00000  118.60271  1.37%  26.7    5s
* 1578   473              78     118.0000000  118.00000  0.00%  27.4    5s

Cutting planes:
  Gomory: 39
  Lift-and-project: 8
  Cover: 1
  Implied bound: 2
  MIR: 108
  Flow cover: 180
  RLT: 18
  Relax-and-lift: 10

Explored 1580 nodes (45801 simplex iterations) in 5.75 seconds (3.60 work units)
Thread count was 12 (of 12 available processors)

Solution count 9: 118 117 116 ... 12

Optimal solution found (tolerance 1.00e-04)
Best objective 1.180000000000e+02, best bound 1.180000000000e+02, gap 0.0000%
